l=17091;
a=5;
setup_costs=[|1,3,3,3,3,
|3,0,3,3,3,
|3,3,1,3,3,
|3,3,3,2,3,
|3,3,3,3,1,
|0,0,0,0,0|];
setup_times=[|1,3,3,3,3,
|3,0,3,3,3,
|3,3,2,3,3,
|3,3,3,2,3,
|3,3,3,3,1,
|0,0,0,0,0|];
m=2;
min_cap=[0,0];
max_cap=[17,6];

initState=[3,5];
s=4;
m_a_s = [|0,0,0,983,
|462,5060,9942,15325|];
m_a_e = [|0,0,0,13859,
|4247,9115,13073,15992|];
n=500;
eligible_machine = [{1},
{2},
{1},
{1},
{1,2},
{1},
{2},
{1},
{1},
{2,1},
{1},
{1,2},
{1},
{2},
{2},
{2},
{1},
{1},
{1},
{2},
{2},
{2},
{1,2},
{2},
{1},
{2},
{1},
{2},
{1},
{1},
{2},
{1},
{1},
{2,1},
{2,1},
{1,2},
{2},
{2},
{2},
{2,1},
{1},
{2,1},
{1},
{2},
{2,1},
{1},
{1},
{1},
{1},
{2},
{2},
{1},
{1},
{2},
{2},
{2},
{2},
{1},
{1},
{2},
{2},
{2},
{2},
{1,2},
{2},
{2,1},
{1,2},
{1},
{1},
{2},
{2},
{2,1},
{2},
{2},
{2},
{1},
{2},
{1,2},
{1},
{1},
{2},
{2},
{2},
{2},
{2,1},
{1},
{1},
{1,2},
{2},
{1,2},
{2},
{2},
{1},
{2},
{2},
{1},
{2},
{2},
{1,2},
{1},
{2},
{2},
{1},
{2},
{1},
{2},
{2,1},
{1},
{1},
{2},
{1},
{2},
{2},
{1},
{1},
{2},
{2,1},
{2},
{2},
{2},
{2},
{2},
{2},
{2},
{2},
{2},
{1,2},
{2,1},
{1},
{1},
{1,2},
{1},
{2},
{1},
{2,1},
{1},
{2},
{1},
{1},
{1},
{1},
{1},
{2},
{1},
{2},
{2},
{2},
{2},
{2},
{1},
{2},
{1},
{2},
{1},
{1},
{2},
{2,1},
{2},
{1},
{1,2},
{1},
{1},
{1},
{2},
{2},
{2},
{2,1},
{1,2},
{1},
{2},
{2},
{2},
{2},
{2},
{2,1},
{2},
{2},
{1},
{1,2},
{2},
{2},
{1},
{1},
{1},
{2},
{1},
{1},
{2},
{2,1},
{2},
{2},
{2,1},
{1},
{1},
{1},
{2},
{1,2},
{2},
{2},
{1,2},
{1},
{2},
{1,2},
{1},
{2},
{2,1},
{2},
{2},
{1},
{2},
{2,1},
{1},
{2},
{2,1},
{1},
{1},
{1,2},
{2},
{2,1},
{2},
{2},
{1,2},
{2},
{2},
{2},
{1},
{1},
{2},
{2},
{2},
{1},
{1},
{1},
{1},
{1},
{1},
{2},
{2},
{1},
{1},
{1},
{2},
{2},
{2},
{1},
{1},
{2},
{2,1},
{2},
{2},
{1},
{2},
{1,2},
{1},
{1},
{1},
{2,1},
{2},
{1},
{2},
{2},
{1},
{1},
{1},
{2,1},
{1,2},
{2},
{1,2},
{1},
{1},
{1},
{2},
{1,2},
{1,2},
{2,1},
{1},
{2,1},
{1},
{2},
{1},
{1},
{2},
{2},
{2},
{2},
{1},
{1},
{1},
{2},
{1},
{1},
{1,2},
{2},
{2,1},
{1},
{1},
{2},
{1},
{1},
{1},
{1},
{1},
{2,1},
{1,2},
{2},
{1},
{1},
{2,1},
{2},
{1},
{2,1},
{2},
{2},
{2},
{1,2},
{2},
{2},
{1,2},
{2,1},
{1},
{2},
{2},
{1},
{2},
{1},
{1},
{1,2},
{2},
{2},
{1},
{2},
{2,1},
{2},
{2},
{1,2},
{2},
{1},
{2},
{2},
{1,2},
{1},
{2},
{2,1},
{2,1},
{2},
{1},
{2},
{2},
{1},
{2},
{1},
{2},
{2},
{2},
{2},
{2},
{2},
{2},
{1},
{2,1},
{2},
{2},
{2},
{1},
{1,2},
{1},
{2},
{1},
{2},
{1,2},
{2},
{2,1},
{1},
{1,2},
{2},
{2},
{1},
{1},
{1},
{1},
{1},
{1},
{1},
{2},
{2},
{2},
{1},
{1},
{2},
{1,2},
{2},
{2,1},
{1},
{1},
{1,2},
{2},
{2},
{1,2},
{1},
{1},
{2},
{2,1},
{1},
{2},
{1},
{1},
{2},
{1},
{1,2},
{2,1},
{2},
{2},
{1},
{2},
{2},
{1},
{1},
{2},
{1},
{2},
{1,2},
{1,2},
{2},
{1},
{2},
{2},
{1},
{1},
{2},
{2},
{2},
{1},
{2},
{1},
{1},
{2},
{1},
{2},
{1},
{2},
{1},
{2},
{2},
{1},
{2},
{1,2},
{1},
{1},
{2},
{2},
{2,1},
{2},
{2,1},
{2},
{2},
{2},
{2},
{1},
{1},
{2,1},
{1,2},
{1},
{1},
{2},
{1},
{2},
{2},
{1},
{1},
{1},
{1},
{2},
{1},
{2,1},
{1},
{2,1},
{1},
{1},
{2},
{1,2},
{1},
{2,1},
{2},
{2},
{1},
{2,1},
{2,1},
{1},
{2},
{1},
{1},
{2},
{1},
{2},
{1},
{1},
{2},
{1},
{2},
{2}];
earliest_start=[103,67,251,238,177,141,214,127,245,97,57,80,112,203,128,162,17,95,240,118,100,242,109,200,258,165,42,261,67,88,230,208,135,85,263,69,200,258,211,166,200,176,36,17,50,169,14,230,247,156,247,82,60,152,65,132,230,51,251,12,99,225,59,157,139,120,216,26,212,59,233,30,156,73,190,196,206,92,149,89,150,83,13,183,112,147,148,255,20,130,110,149,6,199,67,246,117,150,149,202,224,260,18,188,194,216,197,258,234,141,197,138,173,162,133,15,211,147,45,263,243,233,6,81,220,84,24,229,6,215,78,56,214,219,136,162,65,97,260,167,221,162,21,150,205,244,248,116,65,51,34,241,105,158,230,263,253,208,239,110,192,240,252,18,63,141,196,226,26,243,221,113,159,149,41,81,212,127,148,248,107,179,163,226,180,108,222,55,261,145,180,129,130,149,246,253,181,2,87,63,48,22,90,93,102,193,82,227,117,148,50,125,60,263,2,13,76,26,109,226,191,141,236,152,62,92,255,9,174,60,172,209,40,85,199,85,89,69,124,259,25,267,209,112,94,54,68,138,146,233,176,155,165,132,144,179,57,209,31,9,209,72,52,57,248,112,85,247,63,188,196,7,173,121,201,195,203,124,57,7,23,117,134,213,156,16,44,180,213,20,28,151,38,114,50,224,214,152,136,253,241,93,74,229,37,169,253,43,203,220,247,204,151,23,258,92,210,111,173,232,68,176,34,42,160,44,240,59,71,248,252,50,260,76,38,201,42,177,175,258,34,0,248,264,44,95,271,15,127,230,14,103,251,175,185,64,59,32,69,264,200,193,244,226,239,197,216,75,257,56,50,33,207,186,197,67,199,41,270,64,45,224,204,112,233,149,71,84,163,245,142,10,107,183,58,112,28,22,24,119,151,195,30,70,180,253,168,64,250,117,136,18,34,5,219,247,261,131,264,90,126,132,184,11,186,39,197,24,128,84,39,177,16,150,185,121,194,133,204,252,252,6,106,45,108,124,248,102,235,82,123,168,29,206,265,18,11,18,156,140,56,144,208,165,78,231,1,155,92,98,53,128,199,12,109,119,26,138,175,62,63,95,60,45,233,142,148,82,157,166,109,175,249,64,196,108,69,212,239,149];
latest_end=[108,75,262,244,183,189,242,154,260,117,65,94,119,217,142,170,37,138,267,125,116,265,140,214,264,167,45,263,80,111,254,211,144,89,293,102,244,271,257,169,216,179,44,24,73,194,19,263,269,172,268,96,87,163,72,142,246,62,287,40,116,229,79,165,177,121,248,38,220,106,254,62,165,112,204,209,212,110,172,113,160,89,16,215,146,177,151,257,21,138,119,164,11,229,92,257,143,157,155,218,236,267,21,191,195,233,205,268,241,154,200,155,200,175,153,39,215,153,65,297,257,272,20,94,258,117,52,233,12,228,106,86,225,226,148,182,99,106,262,186,223,203,28,152,208,263,250,140,73,58,49,243,123,174,233,279,265,217,261,131,199,241,261,62,94,165,215,237,48,252,227,120,174,150,51,92,216,139,175,252,109,200,168,261,184,136,224,67,283,156,183,151,143,161,252,257,191,5,113,82,62,53,127,99,111,203,111,255,124,164,53,135,99,288,6,38,84,33,125,244,201,154,251,185,68,111,297,37,201,75,175,228,43,118,208,91,96,78,157,286,34,270,214,120,129,72,70,161,169,239,178,158,168,168,152,192,69,235,34,36,244,86,85,59,275,138,99,285,80,212,197,36,175,130,211,198,222,128,75,10,30,142,150,221,182,23,63,195,224,29,32,152,65,127,76,228,217,189,138,261,271,121,88,254,65,203,275,55,216,246,276,216,160,48,277,119,216,117,185,234,91,186,45,59,167,54,259,68,120,287,274,88,264,101,41,205,52,222,199,280,47,13,256,292,51,123,277,26,157,253,17,110,269,176,207,78,101,57,78,278,224,200,277,248,250,212,230,123,268,61,87,49,217,211,214,78,203,47,296,69,74,238,223,147,260,161,85,89,167,275,150,16,135,192,63,119,44,32,27,130,153,202,41,80,181,269,182,76,259,122,181,32,39,7,223,277,263,170,271,121,150,133,187,16,235,52,214,32,141,88,41,209,36,175,207,129,237,135,240,254,277,15,112,62,127,146,276,120,250,101,124,179,40,226,280,26,15,47,180,164,76,165,219,203,80,262,12,172,131,105,83,137,202,15,119,131,55,148,207,64,70,128,100,82,235,143,164,99,184,194,124,219,255,66,211,132,75,218,261,194];
min_time=[5,4,3,3,2,10,9,9,9,6,8,9,4,7,5,8,10,9,9,2,10,8,8,10,4,2,1,1,7,9,10,2,2,2,9,8,9,7,10,2,4,1,3,2,9,9,2,9,8,5,5,9,9,3,2,9,4,7,8,7,7,1,6,7,9,1,8,3,2,10,5,10,2,10,5,4,3,4,9,5,7,6,3,7,9,8,3,1,1,7,6,4,2,9,9,5,8,3,3,5,9,2,2,3,1,5,5,9,2,6,1,4,9,10,6,7,1,2,6,8,3,8,4,7,8,9,8,3,4,3,9,10,9,5,3,5,9,5,2,8,1,10,3,1,1,5,1,6,3,6,6,1,8,8,2,8,4,4,6,7,7,1,6,9,7,5,5,4,6,6,3,2,5,1,10,3,2,10,6,1,1,10,2,10,1,7,2,6,10,6,1,6,6,3,2,1,3,3,6,5,3,7,8,5,2,6,6,7,7,9,2,3,9,10,1,7,2,3,5,5,4,5,4,10,2,4,9,9,6,4,1,7,1,9,5,4,2,9,8,9,2,1,2,4,8,8,2,6,9,3,2,2,1,8,3,3,8,6,2,6,10,3,7,1,8,9,6,8,4,7,1,8,1,3,3,1,4,2,9,2,2,8,4,2,8,3,4,4,3,2,2,1,8,7,7,3,3,8,1,3,10,9,8,6,7,10,8,5,3,9,7,4,2,6,9,10,3,6,5,1,5,10,6,6,6,4,5,2,10,8,8,10,1,10,1,4,10,10,7,8,4,8,4,6,3,10,6,8,10,5,2,5,6,1,10,9,9,6,5,7,5,2,7,6,7,8,4,10,5,4,9,4,3,10,7,9,4,2,10,4,8,5,6,8,7,3,7,3,2,8,6,2,9,3,2,3,5,4,2,3,1,4,8,3,1,4,8,5,2,5,10,6,2,2,2,8,1,9,4,9,7,1,1,3,10,4,7,2,8,2,1,7,6,6,7,8,10,2,8,1,10,5,5,4,6,5,7,7,9,4,1,4,6,5,5,5,1,6,5,9,10,5,7,8,2,7,3,5,9,4,9,2,2,1,8,3,9,9,8,1,3,8,10,10,2,1,4,4,9,10,6,9,2,2,5,10,6,2,7,10];
max_time=[7,5,7,7,10,10,10,10,9,9,9,10,5,8,7,8,10,10,9,9,10,9,9,10,8,3,9,9,9,10,10,9,8,10,9,10,10,10,10,8,4,9,8,3,9,9,3,9,10,10,10,10,9,5,4,9,4,10,8,8,10,8,8,10,10,1,8,5,3,10,9,10,6,10,10,7,3,7,9,7,8,9,9,7,9,9,8,9,5,7,9,10,6,10,10,5,9,10,5,6,10,2,8,7,5,7,7,10,7,9,9,4,10,10,6,9,4,9,7,9,5,9,4,8,8,10,10,10,4,6,10,10,10,5,3,10,9,9,10,10,7,10,3,4,3,7,4,9,9,9,8,7,10,9,6,9,6,5,9,10,7,10,6,10,10,7,5,7,7,7,6,6,5,7,10,7,8,10,6,7,3,10,5,10,9,7,5,7,10,8,2,7,10,8,9,5,9,3,9,10,8,7,10,9,8,10,9,10,9,9,4,4,9,10,6,7,7,5,7,8,7,7,4,10,5,10,9,10,8,8,3,9,3,10,7,5,4,10,10,10,5,7,8,10,8,10,9,6,10,3,2,8,3,9,4,8,9,8,10,7,10,4,8,4,10,10,9,8,6,10,9,9,2,8,10,9,10,3,10,7,5,9,5,10,9,9,8,4,7,6,5,8,10,9,9,5,3,9,3,9,10,10,8,9,7,10,9,9,3,9,9,5,10,7,10,10,5,10,6,5,10,10,6,8,10,4,10,5,10,10,8,10,10,10,6,4,10,10,10,8,10,10,10,7,3,10,6,8,10,8,3,10,7,1,10,9,10,9,5,7,8,2,9,9,9,9,5,10,9,4,10,9,9,10,7,10,6,6,10,4,8,6,7,9,8,7,9,9,5,10,9,7,10,3,6,3,6,7,3,3,4,6,8,9,3,8,9,5,8,9,10,6,4,5,8,8,7,9,9,10,8,9,7,10,10,6,9,4,8,6,9,8,7,6,7,9,10,6,9,6,10,10,7,7,8,5,8,9,10,9,3,9,10,10,8,6,7,10,9,9,10,5,9,9,5,7,5,9,10,7,9,10,4,1,10,4,9,9,9,10,10,8,10,10,9,8,6,7,9,10,9,9,6,2,7,10,7,10,7,10];
size=[1,3,2,3,5,1,3,5,3,4,3,5,3,3,3,3,1,1,3,2,5,4,1,2,1,3,3,3,2,1,3,3,1,4,5,4,2,5,1,2,2,4,2,2,4,1,4,5,2,4,2,4,4,1,5,3,3,5,3,2,5,2,5,5,5,5,5,3,2,5,5,3,5,5,5,3,1,1,4,3,5,5,2,5,2,3,3,3,2,1,4,1,3,5,3,3,2,3,5,1,3,4,5,5,2,1,1,3,3,4,4,3,5,2,4,2,2,1,5,5,4,2,4,2,3,5,3,3,1,5,3,1,4,3,4,1,4,3,1,2,5,4,5,5,1,3,1,2,2,2,1,1,5,1,1,2,2,3,1,3,1,4,3,2,2,4,1,5,1,4,4,3,5,4,5,2,5,1,2,4,1,4,4,2,4,5,4,1,1,1,1,2,4,2,4,4,2,5,2,5,5,5,4,3,2,1,3,1,2,2,3,1,2,5,5,5,2,4,5,4,2,3,5,5,5,5,1,2,3,2,5,4,2,4,1,5,2,5,5,1,5,4,3,3,5,5,4,5,5,1,1,3,3,4,1,1,2,2,5,3,1,1,3,4,5,4,2,4,1,3,1,4,3,5,3,5,3,5,1,4,2,3,2,5,4,5,3,1,3,2,1,2,2,2,5,5,4,3,1,4,4,1,5,4,5,4,2,3,2,2,3,5,3,3,5,2,3,4,5,4,2,1,2,5,2,2,5,5,1,3,5,2,3,2,2,3,5,1,1,1,5,2,4,2,3,4,2,4,2,3,1,5,2,5,3,2,5,5,1,3,5,3,1,3,2,1,3,2,1,1,1,3,2,2,2,2,4,4,3,5,5,2,4,5,1,5,5,3,2,2,5,1,4,2,5,2,5,2,4,1,2,3,1,5,1,5,1,2,3,3,2,1,2,2,5,4,1,1,4,2,3,4,5,2,4,3,5,4,5,4,2,5,4,5,1,5,4,2,4,2,3,5,5,2,5,5,2,2,2,5,5,3,4,4,2,2,2,4,4,3,2,1,4,5,2,4,3,5,2,2,4,5,3,5,4,1,3,3,5,1,4,3,2,1,2,1,4,1,4,1,1,2,4,4,4,4,4,2,3,4];
attribute=[2,2,5,3,4,5,2,1,4,5,1,2,5,2,3,1,5,1,4,3,3,1,1,5,5,4,5,3,2,4,2,2,2,4,4,3,2,5,3,1,1,3,2,1,5,3,4,4,3,5,4,4,1,4,4,2,3,3,2,4,1,4,5,5,4,5,5,4,5,2,5,5,5,5,1,5,1,2,4,1,4,2,4,5,3,1,4,1,2,4,3,1,1,2,5,3,1,5,4,4,2,1,3,5,1,2,3,2,4,3,3,4,1,3,1,4,4,3,5,4,5,5,5,3,5,2,5,4,5,4,4,2,2,4,2,5,4,2,4,4,5,5,3,1,4,5,3,1,5,2,1,1,3,4,3,4,3,1,4,4,1,5,3,1,1,1,4,2,5,4,5,1,1,1,3,5,5,5,4,5,4,1,5,1,1,4,4,3,3,1,1,5,5,3,4,5,1,5,2,4,3,2,2,5,4,1,1,1,1,1,4,3,2,3,5,3,5,3,2,4,2,1,3,5,5,2,1,2,4,4,1,2,1,5,5,2,3,4,5,1,3,5,4,1,2,3,2,5,1,3,1,1,5,5,4,5,3,1,2,2,1,2,5,5,5,4,2,3,2,5,4,3,5,1,1,2,4,4,1,4,2,1,4,4,4,5,3,1,5,2,1,5,1,5,5,5,3,3,3,4,3,5,5,2,3,3,2,1,2,4,5,5,3,3,2,1,4,5,1,3,3,3,4,3,1,1,1,4,3,4,2,5,4,4,3,1,4,2,5,1,1,2,5,4,1,1,3,3,1,5,5,3,2,5,2,1,5,3,5,1,4,4,4,3,4,5,2,1,3,2,5,2,1,4,1,3,2,3,3,1,5,5,2,3,2,1,5,4,5,4,2,1,3,1,1,3,5,2,1,2,2,1,3,1,1,2,1,4,2,3,1,3,5,1,1,1,3,5,2,1,2,2,1,5,5,3,3,2,1,1,1,4,1,2,4,3,2,3,4,2,3,1,5,5,3,2,1,1,3,5,4,4,2,3,4,3,2,4,4,4,2,3,4,3,3,2,2,3,3,5,3,3,5,1,3,2,4,2,2,5,4,4,5,4,2,1,5,5,3,4,5,4,1,1,2,5,4,5,2,3];

upper_bound_integer_objective=315000;
mult_factor_total_runtime=4;
mult_factor_finished_toolate=600;
mult_factor_total_setuptimes=0;
mult_factor_total_setupcosts=2;
running_time_bound=2705;
min_duration=1;
max_duration=10;
max_setup_time=3;
max_setup_cost=3;
